; Benchmark for LTL-sketching problem
(set-logic QF_UF)
(set-info :status unknown)
(declare-fun z_0_0_0 () Bool)
(declare-fun z_0_1_0 () Bool)
(declare-fun z_0_2_0 () Bool)
(declare-fun z_0_3_0 () Bool)
(declare-fun z_0_4_0 () Bool)
(declare-fun z_0_5_0 () Bool)
(declare-fun z_0_6_0 () Bool)
(declare-fun z_0_7_0 () Bool)
(declare-fun z_0_8_0 () Bool)
(declare-fun z_0_9_0 () Bool)
(declare-fun z_0_10_0 () Bool)
(declare-fun z_0_11_0 () Bool)
(declare-fun z_0_12_0 () Bool)
(declare-fun z_0_13_0 () Bool)
(declare-fun z_0_14_0 () Bool)
(declare-fun z_0_15_0 () Bool)
(declare-fun z_0_16_0 () Bool)
(declare-fun z_0_17_0 () Bool)
(declare-fun z_0_18_0 () Bool)
(declare-fun z_0_19_0 () Bool)
(declare-fun z_2_0_0 () Bool)
(declare-fun x_0_! () Bool)
(declare-fun x_0_X () Bool)
(declare-fun x_0_F () Bool)
(declare-fun x_0_G () Bool)
(declare-fun z_2_1_0 () Bool)
(declare-fun z_2_2_0 () Bool)
(declare-fun z_2_3_0 () Bool)
(declare-fun z_2_4_0 () Bool)
(declare-fun z_2_5_0 () Bool)
(declare-fun z_2_6_0 () Bool)
(declare-fun z_2_7_0 () Bool)
(declare-fun z_2_8_0 () Bool)
(declare-fun z_2_9_0 () Bool)
(declare-fun z_2_10_0 () Bool)
(declare-fun z_2_10_1 () Bool)
(declare-fun z_2_10_2 () Bool)
(declare-fun z_0_10_1 () Bool)
(declare-fun z_0_10_2 () Bool)
(declare-fun z_2_11_0 () Bool)
(declare-fun z_2_11_1 () Bool)
(declare-fun z_2_11_2 () Bool)
(declare-fun z_0_11_1 () Bool)
(declare-fun z_0_11_2 () Bool)
(declare-fun z_2_12_0 () Bool)
(declare-fun z_2_12_1 () Bool)
(declare-fun z_2_12_3 () Bool)
(declare-fun z_2_12_2 () Bool)
(declare-fun z_0_12_1 () Bool)
(declare-fun z_0_12_2 () Bool)
(declare-fun z_0_12_3 () Bool)
(declare-fun z_2_13_0 () Bool)
(declare-fun z_2_13_1 () Bool)
(declare-fun z_2_13_3 () Bool)
(declare-fun z_2_13_2 () Bool)
(declare-fun z_0_13_1 () Bool)
(declare-fun z_0_13_2 () Bool)
(declare-fun z_0_13_3 () Bool)
(declare-fun z_2_14_0 () Bool)
(declare-fun z_2_14_1 () Bool)
(declare-fun z_2_14_7 () Bool)
(declare-fun z_2_14_6 () Bool)
(declare-fun z_2_14_5 () Bool)
(declare-fun z_2_14_4 () Bool)
(declare-fun z_2_14_3 () Bool)
(declare-fun z_2_14_2 () Bool)
(declare-fun z_0_14_1 () Bool)
(declare-fun z_0_14_2 () Bool)
(declare-fun z_0_14_3 () Bool)
(declare-fun z_0_14_4 () Bool)
(declare-fun z_0_14_5 () Bool)
(declare-fun z_0_14_6 () Bool)
(declare-fun z_0_14_7 () Bool)
(declare-fun z_2_15_0 () Bool)
(declare-fun z_2_15_1 () Bool)
(declare-fun z_2_15_5 () Bool)
(declare-fun z_2_15_4 () Bool)
(declare-fun z_2_15_3 () Bool)
(declare-fun z_2_15_2 () Bool)
(declare-fun z_0_15_1 () Bool)
(declare-fun z_0_15_2 () Bool)
(declare-fun z_0_15_3 () Bool)
(declare-fun z_0_15_4 () Bool)
(declare-fun z_0_15_5 () Bool)
(declare-fun z_2_16_0 () Bool)
(declare-fun z_2_16_1 () Bool)
(declare-fun z_2_16_6 () Bool)
(declare-fun z_2_16_5 () Bool)
(declare-fun z_2_16_4 () Bool)
(declare-fun z_2_16_3 () Bool)
(declare-fun z_2_16_2 () Bool)
(declare-fun z_0_16_1 () Bool)
(declare-fun z_0_16_2 () Bool)
(declare-fun z_0_16_3 () Bool)
(declare-fun z_0_16_4 () Bool)
(declare-fun z_0_16_5 () Bool)
(declare-fun z_0_16_6 () Bool)
(declare-fun z_2_17_0 () Bool)
(declare-fun z_2_17_1 () Bool)
(declare-fun z_0_17_1 () Bool)
(declare-fun z_2_18_0 () Bool)
(declare-fun z_2_18_1 () Bool)
(declare-fun z_2_18_6 () Bool)
(declare-fun z_2_18_5 () Bool)
(declare-fun z_2_18_4 () Bool)
(declare-fun z_2_18_3 () Bool)
(declare-fun z_2_18_2 () Bool)
(declare-fun z_0_18_1 () Bool)
(declare-fun z_0_18_2 () Bool)
(declare-fun z_0_18_3 () Bool)
(declare-fun z_0_18_4 () Bool)
(declare-fun z_0_18_5 () Bool)
(declare-fun z_0_18_6 () Bool)
(declare-fun z_2_19_0 () Bool)
(declare-fun z_2_19_1 () Bool)
(declare-fun z_2_19_3 () Bool)
(declare-fun z_2_19_2 () Bool)
(declare-fun z_0_19_1 () Bool)
(declare-fun z_0_19_2 () Bool)
(declare-fun z_0_19_3 () Bool)
(declare-fun x_2_p () Bool)
(declare-fun x_2_-> () Bool)
(declare-fun x_2_U () Bool)
(declare-fun x_2_v () Bool)
(declare-fun x_2_& () Bool)
(declare-fun x_2_X () Bool)
(declare-fun x_2_! () Bool)
(declare-fun x_2_F () Bool)
(declare-fun x_2_G () Bool)
(assert
 (= z_0_0_0 true))
(assert
 (= z_0_1_0 true))
(assert
 (= z_0_2_0 true))
(assert
 (= z_0_3_0 true))
(assert
 (= z_0_4_0 true))
(assert
 (= z_0_5_0 true))
(assert
 (= z_0_6_0 true))
(assert
 (= z_0_7_0 true))
(assert
 (= z_0_8_0 true))
(assert
 (= z_0_9_0 true))
(assert
 (= z_0_10_0 false))
(assert
 (= z_0_11_0 false))
(assert
 (= z_0_12_0 false))
(assert
 (= z_0_13_0 false))
(assert
 (= z_0_14_0 false))
(assert
 (= z_0_15_0 false))
(assert
 (= z_0_16_0 false))
(assert
 (= z_0_17_0 false))
(assert
 (= z_0_18_0 false))
(assert
 (= z_0_19_0 false))
(assert
 (=> x_0_! (= z_0_0_0 (not z_2_0_0))))
(assert
 (let (($x1422 (= z_0_0_0 z_2_0_0)))
 (=> x_0_X $x1422)))
(assert
 (=> x_0_F (= z_0_0_0 (or z_2_0_0))))
(assert
 (=> x_0_G (= z_0_0_0 (and z_2_0_0))))
(assert
 (=> x_0_! (= z_0_1_0 (not z_2_1_0))))
(assert
 (let (($x1480 (= z_0_1_0 z_2_1_0)))
 (=> x_0_X $x1480)))
(assert
 (=> x_0_F (= z_0_1_0 (or z_2_1_0))))
(assert
 (=> x_0_G (= z_0_1_0 (and z_2_1_0))))
(assert
 (=> x_0_! (= z_0_2_0 (not z_2_2_0))))
(assert
 (let (($x1460 (= z_0_2_0 z_2_2_0)))
 (=> x_0_X $x1460)))
(assert
 (=> x_0_F (= z_0_2_0 (or z_2_2_0))))
(assert
 (=> x_0_G (= z_0_2_0 (and z_2_2_0))))
(assert
 (=> x_0_! (= z_0_3_0 (not z_2_3_0))))
(assert
 (let (($x1437 (= z_0_3_0 z_2_3_0)))
 (=> x_0_X $x1437)))
(assert
 (=> x_0_F (= z_0_3_0 (or z_2_3_0))))
(assert
 (=> x_0_G (= z_0_3_0 (and z_2_3_0))))
(assert
 (=> x_0_! (= z_0_4_0 (not z_2_4_0))))
(assert
 (let (($x1416 (= z_0_4_0 z_2_4_0)))
 (=> x_0_X $x1416)))
(assert
 (=> x_0_F (= z_0_4_0 (or z_2_4_0))))
(assert
 (=> x_0_G (= z_0_4_0 (and z_2_4_0))))
(assert
 (=> x_0_! (= z_0_5_0 (not z_2_5_0))))
(assert
 (let (($x1389 (= z_0_5_0 z_2_5_0)))
 (=> x_0_X $x1389)))
(assert
 (=> x_0_F (= z_0_5_0 (or z_2_5_0))))
(assert
 (=> x_0_G (= z_0_5_0 (and z_2_5_0))))
(assert
 (=> x_0_! (= z_0_6_0 (not z_2_6_0))))
(assert
 (let (($x1374 (= z_0_6_0 z_2_6_0)))
 (=> x_0_X $x1374)))
(assert
 (=> x_0_F (= z_0_6_0 (or z_2_6_0))))
(assert
 (=> x_0_G (= z_0_6_0 (and z_2_6_0))))
(assert
 (=> x_0_! (= z_0_7_0 (not z_2_7_0))))
(assert
 (let (($x1350 (= z_0_7_0 z_2_7_0)))
 (=> x_0_X $x1350)))
(assert
 (=> x_0_F (= z_0_7_0 (or z_2_7_0))))
(assert
 (=> x_0_G (= z_0_7_0 (and z_2_7_0))))
(assert
 (=> x_0_! (= z_0_8_0 (not z_2_8_0))))
(assert
 (let (($x1330 (= z_0_8_0 z_2_8_0)))
 (=> x_0_X $x1330)))
(assert
 (=> x_0_F (= z_0_8_0 (or z_2_8_0))))
(assert
 (=> x_0_G (= z_0_8_0 (and z_2_8_0))))
(assert
 (=> x_0_! (= z_0_9_0 (not z_2_9_0))))
(assert
 (let (($x1308 (= z_0_9_0 z_2_9_0)))
 (=> x_0_X $x1308)))
(assert
 (=> x_0_F (= z_0_9_0 (or z_2_9_0))))
(assert
 (=> x_0_G (= z_0_9_0 (and z_2_9_0))))
(assert
 (=> x_0_! (= z_0_10_0 (not z_2_10_0))))
(assert
 (let (($x3716 (= z_0_10_0 z_2_10_1)))
 (=> x_0_X $x3716)))
(assert
 (let (($x3721 (= z_0_10_0 (or z_2_10_0 z_2_10_1 z_2_10_2))))
 (=> x_0_F $x3721)))
(assert
 (let (($x3725 (= z_0_10_0 (and z_2_10_0 z_2_10_1 z_2_10_2))))
 (=> x_0_G $x3725)))
(assert
 (=> x_0_! (= z_0_10_1 (not z_2_10_1))))
(assert
 (let (($x3734 (= z_0_10_1 z_2_10_2)))
 (=> x_0_X $x3734)))
(assert
 (let (($x3738 (= z_0_10_1 (or z_2_10_1 z_2_10_2))))
 (=> x_0_F $x3738)))
(assert
 (let (($x3742 (= z_0_10_1 (and z_2_10_1 z_2_10_2))))
 (=> x_0_G $x3742)))
(assert
 (=> x_0_! (= z_0_10_2 (not z_2_10_2))))
(assert
 (let (($x3751 (= z_0_10_2 z_2_10_2)))
 (=> x_0_X $x3751)))
(assert
 (=> x_0_F (= z_0_10_2 (or z_2_10_2))))
(assert
 (=> x_0_G (= z_0_10_2 (and z_2_10_2))))
(assert
 (=> x_0_! (= z_0_11_0 (not z_2_11_0))))
(assert
 (let (($x3770 (= z_0_11_0 z_2_11_1)))
 (=> x_0_X $x3770)))
(assert
 (let (($x3774 (or z_2_11_0 z_2_11_1 z_2_11_2)))
 (let (($x3775 (= z_0_11_0 $x3774)))
 (=> x_0_F $x3775))))
(assert
 (let (($x3778 (and z_2_11_0 z_2_11_1 z_2_11_2)))
 (let (($x3779 (= z_0_11_0 $x3778)))
 (=> x_0_G $x3779))))
(assert
 (=> x_0_! (= z_0_11_1 (not z_2_11_1))))
(assert
 (let (($x3788 (= z_0_11_1 z_2_11_2)))
 (=> x_0_X $x3788)))
(assert
 (let (($x3774 (or z_2_11_0 z_2_11_1 z_2_11_2)))
 (let (($x3791 (= z_0_11_1 $x3774)))
 (=> x_0_F $x3791))))
(assert
 (let (($x3778 (and z_2_11_0 z_2_11_1 z_2_11_2)))
 (let (($x3794 (= z_0_11_1 $x3778)))
 (=> x_0_G $x3794))))
(assert
 (=> x_0_! (= z_0_11_2 (not z_2_11_2))))
(assert
 (let (($x3803 (= z_0_11_2 z_2_11_0)))
 (=> x_0_X $x3803)))
(assert
 (let (($x3774 (or z_2_11_0 z_2_11_1 z_2_11_2)))
 (let (($x3806 (= z_0_11_2 $x3774)))
 (=> x_0_F $x3806))))
(assert
 (let (($x3778 (and z_2_11_0 z_2_11_1 z_2_11_2)))
 (let (($x3809 (= z_0_11_2 $x3778)))
 (=> x_0_G $x3809))))
(assert
 (=> x_0_! (= z_0_12_0 (not z_2_12_0))))
(assert
 (let (($x3820 (= z_0_12_0 z_2_12_1)))
 (=> x_0_X $x3820)))
(assert
 (let (($x3826 (= z_0_12_0 (or z_2_12_0 z_2_12_1 z_2_12_2 z_2_12_3))))
 (=> x_0_F $x3826)))
(assert
 (let (($x3830 (= z_0_12_0 (and z_2_12_0 z_2_12_1 z_2_12_2 z_2_12_3))))
 (=> x_0_G $x3830)))
(assert
 (=> x_0_! (= z_0_12_1 (not z_2_12_1))))
(assert
 (let (($x3839 (= z_0_12_1 z_2_12_2)))
 (=> x_0_X $x3839)))
(assert
 (let (($x3842 (or z_2_12_1 z_2_12_2 z_2_12_3)))
 (let (($x3843 (= z_0_12_1 $x3842)))
 (=> x_0_F $x3843))))
(assert
 (let (($x3846 (and z_2_12_1 z_2_12_2 z_2_12_3)))
 (let (($x3847 (= z_0_12_1 $x3846)))
 (=> x_0_G $x3847))))
(assert
 (=> x_0_! (= z_0_12_2 (not z_2_12_2))))
(assert
 (let (($x3856 (= z_0_12_2 z_2_12_3)))
 (=> x_0_X $x3856)))
(assert
 (let (($x3842 (or z_2_12_1 z_2_12_2 z_2_12_3)))
 (let (($x3859 (= z_0_12_2 $x3842)))
 (=> x_0_F $x3859))))
(assert
 (let (($x3846 (and z_2_12_1 z_2_12_2 z_2_12_3)))
 (let (($x3862 (= z_0_12_2 $x3846)))
 (=> x_0_G $x3862))))
(assert
 (=> x_0_! (= z_0_12_3 (not z_2_12_3))))
(assert
 (let (($x3871 (= z_0_12_3 z_2_12_1)))
 (=> x_0_X $x3871)))
(assert
 (let (($x3842 (or z_2_12_1 z_2_12_2 z_2_12_3)))
 (let (($x3874 (= z_0_12_3 $x3842)))
 (=> x_0_F $x3874))))
(assert
 (let (($x3846 (and z_2_12_1 z_2_12_2 z_2_12_3)))
 (let (($x3877 (= z_0_12_3 $x3846)))
 (=> x_0_G $x3877))))
(assert
 (=> x_0_! (= z_0_13_0 (not z_2_13_0))))
(assert
 (let (($x3888 (= z_0_13_0 z_2_13_1)))
 (=> x_0_X $x3888)))
(assert
 (let (($x3894 (= z_0_13_0 (or z_2_13_0 z_2_13_1 z_2_13_2 z_2_13_3))))
 (=> x_0_F $x3894)))
(assert
 (let (($x3898 (= z_0_13_0 (and z_2_13_0 z_2_13_1 z_2_13_2 z_2_13_3))))
 (=> x_0_G $x3898)))
(assert
 (=> x_0_! (= z_0_13_1 (not z_2_13_1))))
(assert
 (let (($x3907 (= z_0_13_1 z_2_13_2)))
 (=> x_0_X $x3907)))
(assert
 (let (($x3911 (= z_0_13_1 (or z_2_13_1 z_2_13_2 z_2_13_3))))
 (=> x_0_F $x3911)))
(assert
 (let (($x3915 (= z_0_13_1 (and z_2_13_1 z_2_13_2 z_2_13_3))))
 (=> x_0_G $x3915)))
(assert
 (=> x_0_! (= z_0_13_2 (not z_2_13_2))))
(assert
 (let (($x3924 (= z_0_13_2 z_2_13_3)))
 (=> x_0_X $x3924)))
(assert
 (let (($x3927 (or z_2_13_2 z_2_13_3)))
 (let (($x3928 (= z_0_13_2 $x3927)))
 (=> x_0_F $x3928))))
(assert
 (let (($x3931 (and z_2_13_2 z_2_13_3)))
 (let (($x3932 (= z_0_13_2 $x3931)))
 (=> x_0_G $x3932))))
(assert
 (=> x_0_! (= z_0_13_3 (not z_2_13_3))))
(assert
 (let (($x3941 (= z_0_13_3 z_2_13_2)))
 (=> x_0_X $x3941)))
(assert
 (let (($x3927 (or z_2_13_2 z_2_13_3)))
 (let (($x3944 (= z_0_13_3 $x3927)))
 (=> x_0_F $x3944))))
(assert
 (let (($x3931 (and z_2_13_2 z_2_13_3)))
 (let (($x3947 (= z_0_13_3 $x3931)))
 (=> x_0_G $x3947))))
(assert
 (=> x_0_! (= z_0_14_0 (not z_2_14_0))))
(assert
 (let (($x3958 (= z_0_14_0 z_2_14_1)))
 (=> x_0_X $x3958)))
(assert
 (let (($x3967 (or z_2_14_0 z_2_14_1 z_2_14_2 z_2_14_3 z_2_14_4 z_2_14_5 z_2_14_6 z_2_14_7)))
 (let (($x3968 (= z_0_14_0 $x3967)))
 (=> x_0_F $x3968))))
(assert
 (let (($x3971 (and z_2_14_0 z_2_14_1 z_2_14_2 z_2_14_3 z_2_14_4 z_2_14_5 z_2_14_6 z_2_14_7)))
 (let (($x3972 (= z_0_14_0 $x3971)))
 (=> x_0_G $x3972))))
(assert
 (=> x_0_! (= z_0_14_1 (not z_2_14_1))))
(assert
 (let (($x3981 (= z_0_14_1 z_2_14_2)))
 (=> x_0_X $x3981)))
(assert
 (let (($x3984 (or z_2_14_1 z_2_14_2 z_2_14_3 z_2_14_4 z_2_14_5 z_2_14_6 z_2_14_7)))
 (let (($x3985 (= z_0_14_1 $x3984)))
 (=> x_0_F $x3985))))
(assert
 (let (($x3988 (and z_2_14_1 z_2_14_2 z_2_14_3 z_2_14_4 z_2_14_5 z_2_14_6 z_2_14_7)))
 (let (($x3989 (= z_0_14_1 $x3988)))
 (=> x_0_G $x3989))))
(assert
 (=> x_0_! (= z_0_14_2 (not z_2_14_2))))
(assert
 (let (($x3998 (= z_0_14_2 z_2_14_3)))
 (=> x_0_X $x3998)))
(assert
 (let (($x4002 (= z_0_14_2 (or z_2_14_2 z_2_14_3 z_2_14_4 z_2_14_5 z_2_14_6 z_2_14_7))))
 (=> x_0_F $x4002)))
(assert
 (let (($x4006 (= z_0_14_2 (and z_2_14_2 z_2_14_3 z_2_14_4 z_2_14_5 z_2_14_6 z_2_14_7))))
 (=> x_0_G $x4006)))
(assert
 (=> x_0_! (= z_0_14_3 (not z_2_14_3))))
(assert
 (let (($x4015 (= z_0_14_3 z_2_14_4)))
 (=> x_0_X $x4015)))
(assert
 (let (($x4019 (= z_0_14_3 (or z_2_14_3 z_2_14_4 z_2_14_5 z_2_14_6 z_2_14_7))))
 (=> x_0_F $x4019)))
(assert
 (let (($x4023 (= z_0_14_3 (and z_2_14_3 z_2_14_4 z_2_14_5 z_2_14_6 z_2_14_7))))
 (=> x_0_G $x4023)))
(assert
 (=> x_0_! (= z_0_14_4 (not z_2_14_4))))
(assert
 (let (($x4032 (= z_0_14_4 z_2_14_5)))
 (=> x_0_X $x4032)))
(assert
 (let (($x4035 (or z_2_14_4 z_2_14_5 z_2_14_6 z_2_14_7)))
 (let (($x4036 (= z_0_14_4 $x4035)))
 (=> x_0_F $x4036))))
(assert
 (let (($x4039 (and z_2_14_4 z_2_14_5 z_2_14_6 z_2_14_7)))
 (let (($x4040 (= z_0_14_4 $x4039)))
 (=> x_0_G $x4040))))
(assert
 (=> x_0_! (= z_0_14_5 (not z_2_14_5))))
(assert
 (let (($x4049 (= z_0_14_5 z_2_14_6)))
 (=> x_0_X $x4049)))
(assert
 (let (($x4035 (or z_2_14_4 z_2_14_5 z_2_14_6 z_2_14_7)))
 (let (($x4052 (= z_0_14_5 $x4035)))
 (=> x_0_F $x4052))))
(assert
 (let (($x4039 (and z_2_14_4 z_2_14_5 z_2_14_6 z_2_14_7)))
 (let (($x4055 (= z_0_14_5 $x4039)))
 (=> x_0_G $x4055))))
(assert
 (=> x_0_! (= z_0_14_6 (not z_2_14_6))))
(assert
 (let (($x4064 (= z_0_14_6 z_2_14_7)))
 (=> x_0_X $x4064)))
(assert
 (let (($x4035 (or z_2_14_4 z_2_14_5 z_2_14_6 z_2_14_7)))
 (let (($x4067 (= z_0_14_6 $x4035)))
 (=> x_0_F $x4067))))
(assert
 (let (($x4039 (and z_2_14_4 z_2_14_5 z_2_14_6 z_2_14_7)))
 (let (($x4070 (= z_0_14_6 $x4039)))
 (=> x_0_G $x4070))))
(assert
 (=> x_0_! (= z_0_14_7 (not z_2_14_7))))
(assert
 (let (($x4079 (= z_0_14_7 z_2_14_4)))
 (=> x_0_X $x4079)))
(assert
 (let (($x4035 (or z_2_14_4 z_2_14_5 z_2_14_6 z_2_14_7)))
 (let (($x4082 (= z_0_14_7 $x4035)))
 (=> x_0_F $x4082))))
(assert
 (let (($x4039 (and z_2_14_4 z_2_14_5 z_2_14_6 z_2_14_7)))
 (let (($x4085 (= z_0_14_7 $x4039)))
 (=> x_0_G $x4085))))
(assert
 (=> x_0_! (= z_0_15_0 (not z_2_15_0))))
(assert
 (let (($x4096 (= z_0_15_0 z_2_15_1)))
 (=> x_0_X $x4096)))
(assert
 (let (($x4104 (= z_0_15_0 (or z_2_15_0 z_2_15_1 z_2_15_2 z_2_15_3 z_2_15_4 z_2_15_5))))
 (=> x_0_F $x4104)))
(assert
 (let (($x4108 (= z_0_15_0 (and z_2_15_0 z_2_15_1 z_2_15_2 z_2_15_3 z_2_15_4 z_2_15_5))))
 (=> x_0_G $x4108)))
(assert
 (=> x_0_! (= z_0_15_1 (not z_2_15_1))))
(assert
 (let (($x4117 (= z_0_15_1 z_2_15_2)))
 (=> x_0_X $x4117)))
(assert
 (let (($x4121 (= z_0_15_1 (or z_2_15_1 z_2_15_2 z_2_15_3 z_2_15_4 z_2_15_5))))
 (=> x_0_F $x4121)))
(assert
 (let (($x4125 (= z_0_15_1 (and z_2_15_1 z_2_15_2 z_2_15_3 z_2_15_4 z_2_15_5))))
 (=> x_0_G $x4125)))
(assert
 (=> x_0_! (= z_0_15_2 (not z_2_15_2))))
(assert
 (let (($x4134 (= z_0_15_2 z_2_15_3)))
 (=> x_0_X $x4134)))
(assert
 (let (($x4137 (or z_2_15_2 z_2_15_3 z_2_15_4 z_2_15_5)))
 (let (($x4138 (= z_0_15_2 $x4137)))
 (=> x_0_F $x4138))))
(assert
 (let (($x4141 (and z_2_15_2 z_2_15_3 z_2_15_4 z_2_15_5)))
 (let (($x4142 (= z_0_15_2 $x4141)))
 (=> x_0_G $x4142))))
(assert
 (=> x_0_! (= z_0_15_3 (not z_2_15_3))))
(assert
 (let (($x4151 (= z_0_15_3 z_2_15_4)))
 (=> x_0_X $x4151)))
(assert
 (let (($x4137 (or z_2_15_2 z_2_15_3 z_2_15_4 z_2_15_5)))
 (let (($x4154 (= z_0_15_3 $x4137)))
 (=> x_0_F $x4154))))
(assert
 (let (($x4141 (and z_2_15_2 z_2_15_3 z_2_15_4 z_2_15_5)))
 (let (($x4157 (= z_0_15_3 $x4141)))
 (=> x_0_G $x4157))))
(assert
 (=> x_0_! (= z_0_15_4 (not z_2_15_4))))
(assert
 (let (($x4166 (= z_0_15_4 z_2_15_5)))
 (=> x_0_X $x4166)))
(assert
 (let (($x4137 (or z_2_15_2 z_2_15_3 z_2_15_4 z_2_15_5)))
 (let (($x4169 (= z_0_15_4 $x4137)))
 (=> x_0_F $x4169))))
(assert
 (let (($x4141 (and z_2_15_2 z_2_15_3 z_2_15_4 z_2_15_5)))
 (let (($x4172 (= z_0_15_4 $x4141)))
 (=> x_0_G $x4172))))
(assert
 (=> x_0_! (= z_0_15_5 (not z_2_15_5))))
(assert
 (let (($x4181 (= z_0_15_5 z_2_15_2)))
 (=> x_0_X $x4181)))
(assert
 (let (($x4137 (or z_2_15_2 z_2_15_3 z_2_15_4 z_2_15_5)))
 (let (($x4184 (= z_0_15_5 $x4137)))
 (=> x_0_F $x4184))))
(assert
 (let (($x4141 (and z_2_15_2 z_2_15_3 z_2_15_4 z_2_15_5)))
 (let (($x4187 (= z_0_15_5 $x4141)))
 (=> x_0_G $x4187))))
(assert
 (=> x_0_! (= z_0_16_0 (not z_2_16_0))))
(assert
 (let (($x4198 (= z_0_16_0 z_2_16_1)))
 (=> x_0_X $x4198)))
(assert
 (let (($x4206 (or z_2_16_0 z_2_16_1 z_2_16_2 z_2_16_3 z_2_16_4 z_2_16_5 z_2_16_6)))
 (let (($x4207 (= z_0_16_0 $x4206)))
 (=> x_0_F $x4207))))
(assert
 (let (($x4210 (and z_2_16_0 z_2_16_1 z_2_16_2 z_2_16_3 z_2_16_4 z_2_16_5 z_2_16_6)))
 (let (($x4211 (= z_0_16_0 $x4210)))
 (=> x_0_G $x4211))))
(assert
 (=> x_0_! (= z_0_16_1 (not z_2_16_1))))
(assert
 (let (($x4220 (= z_0_16_1 z_2_16_2)))
 (=> x_0_X $x4220)))
(assert
 (let (($x4224 (= z_0_16_1 (or z_2_16_1 z_2_16_2 z_2_16_3 z_2_16_4 z_2_16_5 z_2_16_6))))
 (=> x_0_F $x4224)))
(assert
 (let (($x4228 (= z_0_16_1 (and z_2_16_1 z_2_16_2 z_2_16_3 z_2_16_4 z_2_16_5 z_2_16_6))))
 (=> x_0_G $x4228)))
(assert
 (=> x_0_! (= z_0_16_2 (not z_2_16_2))))
(assert
 (let (($x4237 (= z_0_16_2 z_2_16_3)))
 (=> x_0_X $x4237)))
(assert
 (let (($x4241 (= z_0_16_2 (or z_2_16_2 z_2_16_3 z_2_16_4 z_2_16_5 z_2_16_6))))
 (=> x_0_F $x4241)))
(assert
 (let (($x4245 (= z_0_16_2 (and z_2_16_2 z_2_16_3 z_2_16_4 z_2_16_5 z_2_16_6))))
 (=> x_0_G $x4245)))
(assert
 (=> x_0_! (= z_0_16_3 (not z_2_16_3))))
(assert
 (let (($x4254 (= z_0_16_3 z_2_16_4)))
 (=> x_0_X $x4254)))
(assert
 (let (($x4257 (or z_2_16_3 z_2_16_4 z_2_16_5 z_2_16_6)))
 (let (($x4258 (= z_0_16_3 $x4257)))
 (=> x_0_F $x4258))))
(assert
 (let (($x4261 (and z_2_16_3 z_2_16_4 z_2_16_5 z_2_16_6)))
 (let (($x4262 (= z_0_16_3 $x4261)))
 (=> x_0_G $x4262))))
(assert
 (=> x_0_! (= z_0_16_4 (not z_2_16_4))))
(assert
 (let (($x4271 (= z_0_16_4 z_2_16_5)))
 (=> x_0_X $x4271)))
(assert
 (let (($x4257 (or z_2_16_3 z_2_16_4 z_2_16_5 z_2_16_6)))
 (let (($x4274 (= z_0_16_4 $x4257)))
 (=> x_0_F $x4274))))
(assert
 (let (($x4261 (and z_2_16_3 z_2_16_4 z_2_16_5 z_2_16_6)))
 (let (($x4277 (= z_0_16_4 $x4261)))
 (=> x_0_G $x4277))))
(assert
 (=> x_0_! (= z_0_16_5 (not z_2_16_5))))
(assert
 (let (($x4286 (= z_0_16_5 z_2_16_6)))
 (=> x_0_X $x4286)))
(assert
 (let (($x4257 (or z_2_16_3 z_2_16_4 z_2_16_5 z_2_16_6)))
 (let (($x4289 (= z_0_16_5 $x4257)))
 (=> x_0_F $x4289))))
(assert
 (let (($x4261 (and z_2_16_3 z_2_16_4 z_2_16_5 z_2_16_6)))
 (let (($x4292 (= z_0_16_5 $x4261)))
 (=> x_0_G $x4292))))
(assert
 (=> x_0_! (= z_0_16_6 (not z_2_16_6))))
(assert
 (let (($x4301 (= z_0_16_6 z_2_16_3)))
 (=> x_0_X $x4301)))
(assert
 (let (($x4257 (or z_2_16_3 z_2_16_4 z_2_16_5 z_2_16_6)))
 (let (($x4304 (= z_0_16_6 $x4257)))
 (=> x_0_F $x4304))))
(assert
 (let (($x4261 (and z_2_16_3 z_2_16_4 z_2_16_5 z_2_16_6)))
 (let (($x4307 (= z_0_16_6 $x4261)))
 (=> x_0_G $x4307))))
(assert
 (=> x_0_! (= z_0_17_0 (not z_2_17_0))))
(assert
 (let (($x4318 (= z_0_17_0 z_2_17_1)))
 (=> x_0_X $x4318)))
(assert
 (let (($x4322 (= z_0_17_0 (or z_2_17_0 z_2_17_1))))
 (=> x_0_F $x4322)))
(assert
 (let (($x4326 (= z_0_17_0 (and z_2_17_0 z_2_17_1))))
 (=> x_0_G $x4326)))
(assert
 (=> x_0_! (= z_0_17_1 (not z_2_17_1))))
(assert
 (let (($x4335 (= z_0_17_1 z_2_17_1)))
 (=> x_0_X $x4335)))
(assert
 (=> x_0_F (= z_0_17_1 (or z_2_17_1))))
(assert
 (=> x_0_G (= z_0_17_1 (and z_2_17_1))))
(assert
 (=> x_0_! (= z_0_18_0 (not z_2_18_0))))
(assert
 (let (($x4354 (= z_0_18_0 z_2_18_1)))
 (=> x_0_X $x4354)))
(assert
 (let (($x4362 (or z_2_18_0 z_2_18_1 z_2_18_2 z_2_18_3 z_2_18_4 z_2_18_5 z_2_18_6)))
 (let (($x4363 (= z_0_18_0 $x4362)))
 (=> x_0_F $x4363))))
(assert
 (let (($x4366 (and z_2_18_0 z_2_18_1 z_2_18_2 z_2_18_3 z_2_18_4 z_2_18_5 z_2_18_6)))
 (let (($x4367 (= z_0_18_0 $x4366)))
 (=> x_0_G $x4367))))
(assert
 (=> x_0_! (= z_0_18_1 (not z_2_18_1))))
(assert
 (let (($x4376 (= z_0_18_1 z_2_18_2)))
 (=> x_0_X $x4376)))
(assert
 (let (($x4380 (= z_0_18_1 (or z_2_18_1 z_2_18_2 z_2_18_3 z_2_18_4 z_2_18_5 z_2_18_6))))
 (=> x_0_F $x4380)))
(assert
 (let (($x4384 (= z_0_18_1 (and z_2_18_1 z_2_18_2 z_2_18_3 z_2_18_4 z_2_18_5 z_2_18_6))))
 (=> x_0_G $x4384)))
(assert
 (=> x_0_! (= z_0_18_2 (not z_2_18_2))))
(assert
 (let (($x4393 (= z_0_18_2 z_2_18_3)))
 (=> x_0_X $x4393)))
(assert
 (let (($x4397 (= z_0_18_2 (or z_2_18_2 z_2_18_3 z_2_18_4 z_2_18_5 z_2_18_6))))
 (=> x_0_F $x4397)))
(assert
 (let (($x4401 (= z_0_18_2 (and z_2_18_2 z_2_18_3 z_2_18_4 z_2_18_5 z_2_18_6))))
 (=> x_0_G $x4401)))
(assert
 (=> x_0_! (= z_0_18_3 (not z_2_18_3))))
(assert
 (let (($x4410 (= z_0_18_3 z_2_18_4)))
 (=> x_0_X $x4410)))
(assert
 (let (($x4413 (or z_2_18_3 z_2_18_4 z_2_18_5 z_2_18_6)))
 (let (($x4414 (= z_0_18_3 $x4413)))
 (=> x_0_F $x4414))))
(assert
 (let (($x4417 (and z_2_18_3 z_2_18_4 z_2_18_5 z_2_18_6)))
 (let (($x4418 (= z_0_18_3 $x4417)))
 (=> x_0_G $x4418))))
(assert
 (=> x_0_! (= z_0_18_4 (not z_2_18_4))))
(assert
 (let (($x4427 (= z_0_18_4 z_2_18_5)))
 (=> x_0_X $x4427)))
(assert
 (let (($x4413 (or z_2_18_3 z_2_18_4 z_2_18_5 z_2_18_6)))
 (let (($x4430 (= z_0_18_4 $x4413)))
 (=> x_0_F $x4430))))
(assert
 (let (($x4417 (and z_2_18_3 z_2_18_4 z_2_18_5 z_2_18_6)))
 (let (($x4433 (= z_0_18_4 $x4417)))
 (=> x_0_G $x4433))))
(assert
 (=> x_0_! (= z_0_18_5 (not z_2_18_5))))
(assert
 (let (($x4442 (= z_0_18_5 z_2_18_6)))
 (=> x_0_X $x4442)))
(assert
 (let (($x4413 (or z_2_18_3 z_2_18_4 z_2_18_5 z_2_18_6)))
 (let (($x4445 (= z_0_18_5 $x4413)))
 (=> x_0_F $x4445))))
(assert
 (let (($x4417 (and z_2_18_3 z_2_18_4 z_2_18_5 z_2_18_6)))
 (let (($x4448 (= z_0_18_5 $x4417)))
 (=> x_0_G $x4448))))
(assert
 (=> x_0_! (= z_0_18_6 (not z_2_18_6))))
(assert
 (let (($x4457 (= z_0_18_6 z_2_18_3)))
 (=> x_0_X $x4457)))
(assert
 (let (($x4413 (or z_2_18_3 z_2_18_4 z_2_18_5 z_2_18_6)))
 (let (($x4460 (= z_0_18_6 $x4413)))
 (=> x_0_F $x4460))))
(assert
 (let (($x4417 (and z_2_18_3 z_2_18_4 z_2_18_5 z_2_18_6)))
 (let (($x4463 (= z_0_18_6 $x4417)))
 (=> x_0_G $x4463))))
(assert
 (=> x_0_! (= z_0_19_0 (not z_2_19_0))))
(assert
 (let (($x4474 (= z_0_19_0 z_2_19_1)))
 (=> x_0_X $x4474)))
(assert
 (let (($x4480 (= z_0_19_0 (or z_2_19_0 z_2_19_1 z_2_19_2 z_2_19_3))))
 (=> x_0_F $x4480)))
(assert
 (let (($x4484 (= z_0_19_0 (and z_2_19_0 z_2_19_1 z_2_19_2 z_2_19_3))))
 (=> x_0_G $x4484)))
(assert
 (=> x_0_! (= z_0_19_1 (not z_2_19_1))))
(assert
 (let (($x4493 (= z_0_19_1 z_2_19_2)))
 (=> x_0_X $x4493)))
(assert
 (let (($x4497 (= z_0_19_1 (or z_2_19_1 z_2_19_2 z_2_19_3))))
 (=> x_0_F $x4497)))
(assert
 (let (($x4501 (= z_0_19_1 (and z_2_19_1 z_2_19_2 z_2_19_3))))
 (=> x_0_G $x4501)))
(assert
 (=> x_0_! (= z_0_19_2 (not z_2_19_2))))
(assert
 (let (($x4510 (= z_0_19_2 z_2_19_3)))
 (=> x_0_X $x4510)))
(assert
 (let (($x4514 (= z_0_19_2 (or z_2_19_2 z_2_19_3))))
 (=> x_0_F $x4514)))
(assert
 (let (($x4518 (= z_0_19_2 (and z_2_19_2 z_2_19_3))))
 (=> x_0_G $x4518)))
(assert
 (=> x_0_! (= z_0_19_3 (not z_2_19_3))))
(assert
 (let (($x4527 (= z_0_19_3 z_2_19_3)))
 (=> x_0_X $x4527)))
(assert
 (=> x_0_F (= z_0_19_3 (or z_2_19_3))))
(assert
 (=> x_0_G (= z_0_19_3 (and z_2_19_3))))
(assert
 (or x_0_! x_0_X x_0_F x_0_G))
(assert
 (let (($x48 (not x_0_G)))
 (let (($x42 (not x_0_F)))
 (let (($x1105 (or $x42 $x48)))
 (let (($x36 (not x_0_X)))
 (let (($x1104 (or $x36 $x48)))
 (let (($x1103 (or $x36 $x42)))
 (let (($x31 (not x_0_!)))
 (let (($x1102 (or $x31 $x48)))
 (let (($x1101 (or $x31 $x42)))
 (let (($x1100 (or $x31 $x36)))
 (and $x1100 $x1101 $x1102 $x1103 $x1104 $x1105))))))))))))
(assert
 (and true true))
(assert
 (=> x_2_p z_2_0_0))
(assert
 (=> x_2_p z_2_1_0))
(assert
 (=> x_2_p z_2_2_0))
(assert
 (=> x_2_p z_2_3_0))
(assert
 (=> x_2_p z_2_4_0))
(assert
 (=> x_2_p z_2_5_0))
(assert
 (=> x_2_p z_2_6_0))
(assert
 (=> x_2_p z_2_7_0))
(assert
 (=> x_2_p z_2_8_0))
(assert
 (=> x_2_p z_2_9_0))
(assert
 (=> x_2_p z_2_10_0))
(assert
 (let (($x3728 (not z_2_10_1)))
 (=> x_2_p $x3728)))
(assert
 (=> x_2_p z_2_10_2))
(assert
 (=> x_2_p z_2_11_0))
(assert
 (=> x_2_p z_2_11_1))
(assert
 (let (($x3797 (not z_2_11_2)))
 (=> x_2_p $x3797)))
(assert
 (let (($x3813 (not z_2_12_0)))
 (=> x_2_p $x3813)))
(assert
 (let (($x3833 (not z_2_12_1)))
 (=> x_2_p $x3833)))
(assert
 (=> x_2_p z_2_12_2))
(assert
 (=> x_2_p z_2_12_3))
(assert
 (let (($x3881 (not z_2_13_0)))
 (=> x_2_p $x3881)))
(assert
 (let (($x3901 (not z_2_13_1)))
 (=> x_2_p $x3901)))
(assert
 (let (($x3918 (not z_2_13_2)))
 (=> x_2_p $x3918)))
(assert
 (=> x_2_p z_2_13_3))
(assert
 (let (($x3951 (not z_2_14_0)))
 (=> x_2_p $x3951)))
(assert
 (let (($x3975 (not z_2_14_1)))
 (=> x_2_p $x3975)))
(assert
 (let (($x3992 (not z_2_14_2)))
 (=> x_2_p $x3992)))
(assert
 (let (($x4009 (not z_2_14_3)))
 (=> x_2_p $x4009)))
(assert
 (let (($x4026 (not z_2_14_4)))
 (=> x_2_p $x4026)))
(assert
 (let (($x4043 (not z_2_14_5)))
 (=> x_2_p $x4043)))
(assert
 (let (($x4058 (not z_2_14_6)))
 (=> x_2_p $x4058)))
(assert
 (=> x_2_p z_2_14_7))
(assert
 (let (($x4089 (not z_2_15_0)))
 (=> x_2_p $x4089)))
(assert
 (=> x_2_p z_2_15_1))
(assert
 (let (($x4128 (not z_2_15_2)))
 (=> x_2_p $x4128)))
(assert
 (let (($x4145 (not z_2_15_3)))
 (=> x_2_p $x4145)))
(assert
 (=> x_2_p z_2_15_4))
(assert
 (let (($x4175 (not z_2_15_5)))
 (=> x_2_p $x4175)))
(assert
 (let (($x4191 (not z_2_16_0)))
 (=> x_2_p $x4191)))
(assert
 (=> x_2_p z_2_16_1))
(assert
 (let (($x4231 (not z_2_16_2)))
 (=> x_2_p $x4231)))
(assert
 (let (($x4248 (not z_2_16_3)))
 (=> x_2_p $x4248)))
(assert
 (let (($x4265 (not z_2_16_4)))
 (=> x_2_p $x4265)))
(assert
 (=> x_2_p z_2_16_5))
(assert
 (=> x_2_p z_2_16_6))
(assert
 (=> x_2_p z_2_17_0))
(assert
 (let (($x4329 (not z_2_17_1)))
 (=> x_2_p $x4329)))
(assert
 (=> x_2_p z_2_18_0))
(assert
 (let (($x4370 (not z_2_18_1)))
 (=> x_2_p $x4370)))
(assert
 (=> x_2_p z_2_18_2))
(assert
 (let (($x4404 (not z_2_18_3)))
 (=> x_2_p $x4404)))
(assert
 (let (($x4421 (not z_2_18_4)))
 (=> x_2_p $x4421)))
(assert
 (=> x_2_p z_2_18_5))
(assert
 (let (($x4451 (not z_2_18_6)))
 (=> x_2_p $x4451)))
(assert
 (=> x_2_p z_2_19_0))
(assert
 (let (($x4487 (not z_2_19_1)))
 (=> x_2_p $x4487)))
(assert
 (=> x_2_p z_2_19_2))
(assert
 (let (($x4521 (not z_2_19_3)))
 (=> x_2_p $x4521)))
(assert
 (or x_2_p))
(assert
 (let (($x4556 (not x_2_->)))
 (let (($x4554 (not x_2_U)))
 (let (($x4552 (not x_2_v)))
 (let (($x4550 (not x_2_&)))
 (let (($x4548 (not x_2_X)))
 (let (($x4546 (not x_2_!)))
 (let (($x4544 (not x_2_F)))
 (let (($x4542 (not x_2_G)))
 (and $x4542 $x4544 $x4546 $x4548 $x4550 $x4552 $x4554 $x4556))))))))))
(check-sat)

